0 5004.63
1 5004.63
2 4847.00
3 4847.00
4 4847.00
5 4847.00
6 4847.00
7 4847.00
8 4847.00
9 4847.00
10 4847.00
11 4847.00
12 4847.00
13 4847.00
14 4847.00
15 4847.00
16 4847.00
17 4847.00
18 4847.00
19 4841.37
20 4841.37
21 4841.37
22 4783.58
23 4783.58
24 4783.58
25 4783.58
26 4783.58
27 4783.58
28 4783.58
29 4783.58
30 4783.58
31 4783.58
32 4783.58
33 4783.58
34 4783.58
35 4783.58
36 4783.58
37 4783.58
38 4766.35
39 4766.35
40 4766.35
41 4766.35
42 4766.35
43 4766.35
44 4766.35
45 4766.35
46 4766.35
47 4766.35
48 4766.35
49 4766.35
50 4766.35
51 4766.35
52 4753.11
53 4753.11
54 4753.11
55 4753.11
56 4753.11
57 4753.11
58 4716.39
59 4716.39
60 4716.39
61 4716.39
62 4716.39
63 4716.39
64 4716.39
65 4716.39
66 4716.39
67 4716.39
68 4716.39
69 4716.39
70 4716.39
71 4716.39
72 4716.39
73 4716.39
74 4716.39
75 4716.39
76 4716.39
77 4716.39
78 4716.39
79 4716.39
80 4716.39
81 4716.39
82 4716.39
83 4716.39
84 4716.39
85 4716.39
86 4716.39
87 4716.39
88 4716.39
89 4716.39
90 4716.39
91 4716.39
92 4716.39
93 4716.39
94 4716.39
95 4716.39
96 4716.39
97 4716.39
98 4716.39
99 4716.39
100 4716.39
101 4716.39
102 4716.39
103 4716.39
104 4716.39
105 4716.39
106 4716.39
107 4716.39
108 4716.39
109 4716.39
110 4716.39
111 4716.39
112 4716.39
113 4716.39
114 4716.39
115 4716.39
116 4716.39
117 4716.39
118 4716.39
119 4716.39
120 4716.39
121 4716.39
122 4716.39
123 4716.39
124 4716.39
125 4716.39
126 4716.39
127 4716.39
128 4716.39
129 4716.39
130 4716.39
131 4716.39
132 4716.39
133 4716.39
134 4716.39
135 4716.39
136 4716.39
137 4716.39
138 4716.39
139 4716.39
140 4716.39
141 4716.39
142 4716.39
143 4716.39
144 4716.39
145 4716.39
146 4716.39
147 4716.39
148 4716.39
149 4716.39
150 4716.39
151 4716.39
152 4716.39
153 4716.39
154 4716.39
155 4716.39
156 4716.39
157 4716.39
158 4716.39
159 4716.39
160 4716.39
161 4716.39
162 4716.39
163 4716.39
164 4716.39
165 4716.39
166 4716.39
167 4716.39
168 4716.39
169 4716.39
170 4716.39
171 4716.39
172 4716.39
173 4716.39
174 4716.39
175 4716.39
176 4716.39
177 4716.39
178 4716.39
179 4716.39
180 4716.39
181 4716.39
182 4716.39
183 4716.39
184 4716.39
185 4716.39
186 4716.39
187 4716.39
188 4716.39
189 4716.39
190 4716.39
191 4716.39
192 4716.39
193 4716.39
194 4716.39
195 4716.39
196 4716.39
197 4716.39
198 4716.39
199 4716.39
200 4716.39
201 4716.39
202 4716.39
203 4716.39
204 4716.39
205 4716.39
206 4716.39
207 4716.39
208 4716.39
209 4716.39
210 4716.39
211 4716.39
212 4716.39
213 4716.39
214 4716.39
215 4716.39
216 4716.39
217 4716.39
218 4716.39
219 4716.39
220 4700.73
221 4700.73
222 4700.73
223 4700.73
224 4700.73
225 4700.73
226 4700.73
227 4700.73
228 4700.73
229 4700.73
230 4700.73
231 4700.73
232 4700.73
233 4700.73
234 4700.73
235 4700.73
236 4700.73
237 4700.73
238 4700.73
239 4700.73
240 4700.73
241 4700.73
242 4700.73
243 4700.73
244 4700.73
245 4700.73
246 4700.73
247 4679.86
248 4679.86
249 4679.86
250 4679.86
251 4679.86
252 4679.86
253 4679.86
254 4679.67
255 4679.67
256 4679.67
257 4679.67
258 4679.67
259 4679.67
260 4679.67
261 4679.67
262 4679.67
263 4679.67
264 4679.67
265 4679.67
266 4679.67
267 4679.67
268 4679.67
269 4679.67
270 4679.67
271 4679.67
272 4679.67
273 4679.67
274 4679.67
275 4679.67
276 4679.67
277 4679.67
278 4679.67
279 4679.67
280 4679.67
281 4679.67
282 4679.67
283 4679.67
284 4679.67
285 4679.67
286 4679.67
287 4679.67
288 4679.67
289 4676.32
290 4676.32
291 4660.03
292 4660.03
293 4660.03
294 4660.03
295 4660.03
296 4660.03
297 4660.03
298 4660.03
299 4660.03
300 4660.03
301 4660.03
302 4660.03
303 4660.03
304 4660.03
305 4660.03
306 4660.03
307 4660.03
308 4660.03
309 4660.03
310 4660.03
311 4660.03
312 4660.03
313 4660.03
314 4660.03
315 4660.03
316 4660.03
317 4660.03
318 4660.03
319 4660.03
320 4660.03
321 4660.03
322 4660.03
323 4660.03
324 4660.03
325 4660.03
326 4660.03
327 4660.03
328 4659.00
329 4659.00
330 4659.00
331 4659.00
332 4659.00
333 4659.00
334 4659.00
335 4659.00
336 4659.00
337 4659.00
338 4659.00
339 4659.00
340 4659.00
341 4659.00
342 4659.00
343 4659.00
344 4659.00
345 4659.00
346 4659.00
347 4659.00
348 4659.00
349 4659.00
350 4659.00
351 4659.00
352 4659.00
353 4659.00
354 4659.00
355 4659.00
356 4657.51
357 4657.51
358 4657.51
359 4657.51
360 4657.51
361 4657.51
362 4657.51
363 4657.51
364 4657.51
365 4657.51
366 4657.51
367 4657.51
368 4657.51
369 4657.51
370 4657.51
371 4657.51
372 4657.51
373 4657.51
374 4657.51
375 4657.51
376 4657.51
377 4657.51
378 4657.51
379 4654.09
380 4654.09
381 4654.09
382 4654.09
383 4654.09
384 4654.09
385 4654.09
386 4654.09
387 4654.09
388 4654.09
389 4654.09
390 4654.09
391 4654.09
392 4654.09
393 4654.09
394 4654.09
395 4654.09
396 4654.09
397 4654.09
398 4654.09
399 4654.09
400 4654.09
401 4654.09
402 4654.09
403 4654.09
404 4654.09
405 4654.09
406 4654.09
407 4654.09
408 4654.09
409 4654.09
410 4654.09
411 4654.09
412 4654.09
413 4654.09
414 4654.09
415 4654.09
416 4654.09
417 4654.09
418 4654.09
419 4654.09
420 4654.09
421 4654.09
422 4654.09
423 4654.09
424 4654.09
425 4654.09
426 4654.09
427 4654.09
428 4654.09
429 4654.09
430 4654.09
431 4654.09
432 4654.09
433 4651.03
434 4651.03
435 4651.03
436 4651.03
437 4651.03
438 4651.03
439 4651.03
440 4651.03
441 4651.03
442 4651.03
443 4651.03
444 4651.03
445 4651.03
446 4651.03
447 4651.03
448 4651.03
449 4651.03
450 4651.03
451 4651.03
452 4651.03
453 4651.03
454 4651.03
455 4651.03
456 4651.03
457 4651.03
458 4651.03
459 4651.03
460 4651.03
461 4651.03
462 4651.03
463 4651.03
464 4651.03
465 4651.03
466 4651.03
467 4651.03
468 4651.03
469 4651.03
470 4651.03
471 4651.03
472 4651.03
473 4651.03
474 4651.03
475 4651.03
476 4651.03
477 4651.03
478 4651.03
479 4651.03
480 4651.03
481 4651.03
482 4651.03
483 4651.03
484 4651.03
485 4651.03
486 4651.03
487 4651.03
488 4651.03
489 4651.03
490 4651.03
491 4651.03
492 4651.03
493 4651.03
494 4640.56
495 4640.56
496 4640.56
497 4640.56
498 4640.56
499 4640.56
1 7 9 3 0 0 